
Gurobi 11.0.1 (win64) logging started Thu May 16 18:46:10 2024

Set parameter LogFile to value "output/solver_log14.txt"
Gurobi Optimizer version 11.0.1 build v11.0.1rc0 (win64 - Windows 11.0 (22631.2))

CPU model: 11th Gen Intel(R) Core(TM) i7-1165G7 @ 2.80GHz, instruction set [SSE2|AVX|AVX2|AVX512]
Thread count: 4 physical cores, 8 logical processors, using up to 8 threads

Optimize a model with 4335 rows, 1027 columns and 79429 nonzeros
Model fingerprint: 0x54e8cb27
Variable types: 568 continuous, 459 integer (459 binary)
Coefficient statistics:
  Matrix range     [4e-01, 1e+05]
  Objective range  [1e+00, 1e+02]
  Bounds range     [1e+00, 1e+00]
  RHS range        [1e-02, 1e+05]

User MIP start produced solution with objective 40245.6 (0.01s)
User MIP start produced solution with objective 40245.6 (0.01s)
Loaded user MIP start with objective 40245.6

Presolve removed 543 rows and 300 columns
Presolve time: 0.09s
Presolved: 3792 rows, 727 columns, 71311 nonzeros
Variable types: 524 continuous, 203 integer (200 binary)

Root relaxation: objective 4.685812e+04, 1317 iterations, 0.06 seconds (0.12 work units)

    Nodes    |    Current Node    |     Objective Bounds      |     Work
 Expl Unexpl |  Obj  Depth IntInf | Incumbent    BestBd   Gap | It/Node Time

     0     0 46858.1248    0   37 40245.6037 46858.1248  16.4%     -    0s
     0     0 45858.9192    0   45 40245.6037 45858.9192  13.9%     -    0s
     0     0 45223.7880    0   40 40245.6037 45223.7880  12.4%     -    0s
     0     0 44106.1141    0   47 40245.6037 44106.1141  9.59%     -    0s
     0     0 44106.1141    0   42 40245.6037 44106.1141  9.59%     -    0s
     0     0 44106.1141    0   47 40245.6037 44106.1141  9.59%     -    0s
     0     0 44106.1141    0   48 40245.6037 44106.1141  9.59%     -    0s
     0     0 44106.1141    0   56 40245.6037 44106.1141  9.59%     -    1s
     0     0 43628.8756    0   56 40245.6037 43628.8756  8.41%     -    1s
     0     0 43628.8756    0   50 40245.6037 43628.8756  8.41%     -    1s
     0     0 43628.8756    0   50 40245.6037 43628.8756  8.41%     -    1s
     0     0 43628.8756    0   56 40245.6037 43628.8756  8.41%     -    1s
     0     0 43628.8756    0   49 40245.6037 43628.8756  8.41%     -    1s
     0     0 43628.8756    0   48 40245.6037 43628.8756  8.41%     -    1s
     0     0 43628.8756    0   49 40245.6037 43628.8756  8.41%     -    1s
     0     0 43628.8756    0   49 40245.6037 43628.8756  8.41%     -    1s
     0     0 43628.8756    0   54 40245.6037 43628.8756  8.41%     -    1s
     0     0 43628.8756    0   54 40245.6037 43628.8756  8.41%     -    1s
     0     0 43628.8756    0   50 40245.6037 43628.8756  8.41%     -    1s
     0     0 43628.8756    0   50 40245.6037 43628.8756  8.41%     -    1s
     0     0 43628.8756    0   50 40245.6037 43628.8756  8.41%     -    1s
     0     0 43628.8756    0   50 40245.6037 43628.8756  8.41%     -    1s
     0     0 43628.8756    0   50 40245.6037 43628.8756  8.41%     -    1s
     0     0 43628.8756    0   53 40245.6037 43628.8756  8.41%     -    1s
     0     0 43628.8756    0   62 40245.6037 43628.8756  8.41%     -    2s
     0     0 43628.8756    0   61 40245.6037 43628.8756  8.41%     -    2s
     0     0 43628.8756    0   60 40245.6037 43628.8756  8.41%     -    2s
     0     0 43628.8756    0   57 40245.6037 43628.8756  8.41%     -    2s
     0     0 43628.8756    0   58 40245.6037 43628.8756  8.41%     -    2s
     0     0 43628.8756    0   57 40245.6037 43628.8756  8.41%     -    2s
     0     0 43628.8756    0   59 40245.6037 43628.8756  8.41%     -    2s
     0     0 43628.8756    0   59 40245.6037 43628.8756  8.41%     -    2s
     0     2 43628.8756    0   59 40245.6037 43628.8756  8.41%     -    2s
H   97    38                    40245.673575 42599.3820  5.85%   325    3s
   202    80 41298.3796    5   33 40245.6736 42452.6394  5.48%   285    5s
H 1312   459                    40253.487037 40268.4668  0.04%   140    9s
  1346   595 40268.3579   24   11 40253.4870 40268.4668  0.04%   137   10s
H 1356   547                    40260.607278 40268.4668  0.02%   137   10s
H 1465   472                    40264.611044 40268.4668  0.01%   132   10s

Cutting planes:
  Gomory: 1
  Implied bound: 4
  MIR: 58
  RLT: 3
  Relax-and-lift: 3

Explored 1854 nodes (208625 simplex iterations) in 10.33 seconds (21.04 work units)
Thread count was 8 (of 8 available processors)

Solution count 6: 40264.6 40264.6 40260.6 ... 40245.6

Optimal solution found (tolerance 1.00e-04)
Best objective 4.026461104423e+04, best bound 4.026846677829e+04, gap 0.0096%
